min: 68.250 XMANAUS1A +122.500 XBELEM1A +68.250 XMANAUS2A +122.500 XBELEM2A +68.250 XMANAUS3A +122.500 XBELEM3A +68.250 XMANAUS4A +122.500 XBELEM4A +73.500 XMANAUS1B +92.750 XBELEM1B +73.500 XMANAUS2B +92.750 XBELEM2B +73.500 XMANAUS3B +92.750 XBELEM3B +73.500 XMANAUS4B +92.750 XBELEM4B +89.250 XMANAUS1C +42.875 XBELEM1C +89.250 XMANAUS2C +42.875 XBELEM2C +89.250 XMANAUS3C +42.875 XBELEM3C +89.250 XMANAUS4C +42.875 XBELEM4C +120.750 XMANAUS1D +141.750 XBELEM1D +120.750 XMANAUS2D +141.750 XBELEM2D +120.750 XMANAUS3D +141.750 XBELEM3D +120.750 XMANAUS4D +141.750 XBELEM4D +96.250 XMANAUS1E +68.250 XBELEM1E +96.250 XMANAUS2E +68.250 XBELEM2E +96.250 XMANAUS3E +68.250 XBELEM3E +96.250 XMANAUS4E +68.250 XBELEM4E;

/*Estoque da Central de Compras não pode ficar menos que 0*/
C1:  XCentral1MANAUS + XCentral1BELEM + XCentral2MANAUS + XCentral2BELEM + XCentral3MANAUS + XCentral3BELEM + XCentral4MANAUS + XCentral4BELEM  <=  5500;

/*Estoques dos Centros de distribuição não podem ficar acima do limite*/
C2:  XCentral1MANAUS - XMANAUS1A - XMANAUS1B - XMANAUS1C - XMANAUS1D - XMANAUS1E  <=  1400;
C3:  XCentral1MANAUS - XMANAUS1A - XMANAUS1B - XMANAUS1C - XMANAUS1D - XMANAUS1E + XCentral2MANAUS - XMANAUS2A - XMANAUS2B - XMANAUS2C - XMANAUS2D - XMANAUS2E  <=  1400;
C4:  XCentral1MANAUS - XMANAUS1A - XMANAUS1B - XMANAUS1C - XMANAUS1D - XMANAUS1E + XCentral2MANAUS - XMANAUS2A - XMANAUS2B - XMANAUS2C - XMANAUS2D - XMANAUS2E + XCentral3MANAUS - XMANAUS3A - XMANAUS3B - XMANAUS3C - XMANAUS3D - XMANAUS3E  <=  1400;
C5:  XCentral1MANAUS - XMANAUS1A - XMANAUS1B - XMANAUS1C - XMANAUS1D - XMANAUS1E + XCentral2MANAUS - XMANAUS2A - XMANAUS2B - XMANAUS2C - XMANAUS2D - XMANAUS2E + XCentral3MANAUS - XMANAUS3A - XMANAUS3B - XMANAUS3C - XMANAUS3D - XMANAUS3E + XCentral4MANAUS - XMANAUS4A - XMANAUS4B - XMANAUS4C - XMANAUS4D - XMANAUS4E  <=  1400;

C6:  XCentral1BELEM - XBELEM1A - XBELEM1B - XBELEM1C - XBELEM1D - XBELEM1E  <=  700;
C7:  XCentral1BELEM - XBELEM1A - XBELEM1B - XBELEM1C - XBELEM1D - XBELEM1E + XCentral2BELEM - XBELEM2A - XBELEM2B - XBELEM2C - XBELEM2D - XBELEM2E  <=  700;
C8:  XCentral1BELEM - XBELEM1A - XBELEM1B - XBELEM1C - XBELEM1D - XBELEM1E + XCentral2BELEM - XBELEM2A - XBELEM2B - XBELEM2C - XBELEM2D - XBELEM2E + XCentral3BELEM - XBELEM3A - XBELEM3B - XBELEM3C - XBELEM3D - XBELEM3E  <=  700;
C9:  XCentral1BELEM - XBELEM1A - XBELEM1B - XBELEM1C - XBELEM1D - XBELEM1E + XCentral2BELEM - XBELEM2A - XBELEM2B - XBELEM2C - XBELEM2D - XBELEM2E + XCentral3BELEM - XBELEM3A - XBELEM3B - XBELEM3C - XBELEM3D - XBELEM3E + XCentral4BELEM - XBELEM4A - XBELEM4B - XBELEM4C - XBELEM4D - XBELEM4E  <=  700;


/*Estoques dos Centros de distribuição não podem ficar abaixo do limite*/
C10:  XCentral1MANAUS - XMANAUS1A - XMANAUS1B - XMANAUS1C - XMANAUS1D - XMANAUS1E  >=  -600;
C11:  XCentral1MANAUS - XMANAUS1A - XMANAUS1B - XMANAUS1C - XMANAUS1D - XMANAUS1E + XCentral2MANAUS - XMANAUS2A - XMANAUS2B - XMANAUS2C - XMANAUS2D - XMANAUS2E  >=  -600;
C12:  XCentral1MANAUS - XMANAUS1A - XMANAUS1B - XMANAUS1C - XMANAUS1D - XMANAUS1E + XCentral2MANAUS - XMANAUS2A - XMANAUS2B - XMANAUS2C - XMANAUS2D - XMANAUS2E + XCentral3MANAUS - XMANAUS3A - XMANAUS3B - XMANAUS3C - XMANAUS3D - XMANAUS3E  >=  -600;
C13:  XCentral1MANAUS - XMANAUS1A - XMANAUS1B - XMANAUS1C - XMANAUS1D - XMANAUS1E + XCentral2MANAUS - XMANAUS2A - XMANAUS2B - XMANAUS2C - XMANAUS2D - XMANAUS2E + XCentral3MANAUS - XMANAUS3A - XMANAUS3B - XMANAUS3C - XMANAUS3D - XMANAUS3E + XCentral4MANAUS - XMANAUS4A - XMANAUS4B - XMANAUS4C - XMANAUS4D - XMANAUS4E  >=  -600;

C14:  XCentral1BELEM - XBELEM1A - XBELEM1B - XBELEM1C - XBELEM1D - XBELEM1E  >=  -800;
C15:  XCentral1BELEM - XBELEM1A - XBELEM1B - XBELEM1C - XBELEM1D - XBELEM1E + XCentral2BELEM - XBELEM2A - XBELEM2B - XBELEM2C - XBELEM2D - XBELEM2E  >=  -800;
C16:  XCentral1BELEM - XBELEM1A - XBELEM1B - XBELEM1C - XBELEM1D - XBELEM1E + XCentral2BELEM - XBELEM2A - XBELEM2B - XBELEM2C - XBELEM2D - XBELEM2E + XCentral3BELEM - XBELEM3A - XBELEM3B - XBELEM3C - XBELEM3D - XBELEM3E  >=  -800;
C17:  XCentral1BELEM - XBELEM1A - XBELEM1B - XBELEM1C - XBELEM1D - XBELEM1E + XCentral2BELEM - XBELEM2A - XBELEM2B - XBELEM2C - XBELEM2D - XBELEM2E + XCentral3BELEM - XBELEM3A - XBELEM3B - XBELEM3C - XBELEM3D - XBELEM3E + XCentral4BELEM - XBELEM4A - XBELEM4B - XBELEM4C - XBELEM4D - XBELEM4E  >=  -800;

/*Todos os meses as demandas de Cimento serão satisfeitas*/
C18: XMANAUS1A + XBELEM1A >= 239.61440;
C19: XMANAUS1B + XBELEM1B >= 398.99240;
C20: XMANAUS1C + XBELEM1C >= 291.91000;
C21: XMANAUS1D + XBELEM1D >= 288.28320;
C22: XMANAUS1E + XBELEM1E >= 327.92000;

C23: XMANAUS2A + XBELEM2A >= 245.33250;
C24: XMANAUS2B + XBELEM2B >= 385.04490;
C25: XMANAUS2C + XBELEM2C >= 293.55390;
C26: XMANAUS2D + XBELEM2D >= 268.73750;
C27: XMANAUS2E + XBELEM2E >= 322.95750;

C28: XMANAUS3A + XBELEM3A >= 250.25640;
C29: XMANAUS3B + XBELEM3B >= 369.80160;
C30: XMANAUS3C + XBELEM3C >= 293.98560;
C31: XMANAUS3D + XBELEM3D >= 247.64520;
C32: XMANAUS3E + XBELEM3E >= 316.95000;

C33: XMANAUS4A + XBELEM4A >= 254.38610;
C34: XMANAUS4B + XBELEM4B >= 353.26250;
C35: XMANAUS4C + XBELEM4C >= 293.20510;
C36: XMANAUS4D + XBELEM4D >= 225.00630;
C37: XMANAUS4E + XBELEM4E >= 309.89750;

/*Toda distribuição é maior ou igual à zero*/
C38: XCentral1MANAUS >= 0;
C39: XCentral1BELEM >= 0;
C40: XMANAUS1A >= 0;
C41: XMANAUS1B >= 0;
C42: XMANAUS1C >= 0;
C43: XMANAUS1D >= 0;
C44: XMANAUS1E >= 0;
C45: XBELEM1A >= 0;
C46: XBELEM1B >= 0;
C47: XBELEM1C >= 0;
C48: XBELEM1D >= 0;
C49: XBELEM1E >= 0;
C50: XCentral2MANAUS >= 0;
C51: XCentral2BELEM >= 0;
C52: XMANAUS2A >= 0;
C53: XMANAUS2B >= 0;
C54: XMANAUS2C >= 0;
C55: XMANAUS2D >= 0;
C56: XMANAUS2E >= 0;
C57: XBELEM2A >= 0;
C58: XBELEM2B >= 0;
C59: XBELEM2C >= 0;
C60: XBELEM2D >= 0;
C61: XBELEM2E >= 0;
C62: XCentral3MANAUS >= 0;
C63: XCentral3BELEM >= 0;
C64: XMANAUS3A >= 0;
C65: XMANAUS3B >= 0;
C66: XMANAUS3C >= 0;
C67: XMANAUS3D >= 0;
C68: XMANAUS3E >= 0;
C69: XBELEM3A >= 0;
C70: XBELEM3B >= 0;
C71: XBELEM3C >= 0;
C72: XBELEM3D >= 0;
C73: XBELEM3E >= 0;
C74: XCentral4MANAUS >= 0;
C75: XCentral4BELEM >= 0;
C76: XMANAUS4A >= 0;
C77: XMANAUS4B >= 0;
C78: XMANAUS4C >= 0;
C79: XMANAUS4D >= 0;
C80: XMANAUS4E >= 0;
C81: XBELEM4A >= 0;
C82: XBELEM4B >= 0;
C83: XBELEM4C >= 0;
C84: XBELEM4D >= 0;
C85: XBELEM4E >= 0;
